
Gurobi 12.0.0 (win64) logging started Wed May  6 19:29:48 2026

Set parameter LogFile to value "C:\Users\Asus\Documents\GitHub\logistics-model2\internal-logistics-model2\results\SR_SV_WT\case3\result_SR_SV_WT_case3_P5_eps85_2026_05_06_19_29.log"
Gurobi Optimizer version 12.0.0 build v12.0.0rc1 (win64 - Windows 10.0 (19045.2))

CPU model: 12th Gen Intel(R) Core(TM) i7-12650H, instruction set [SSE2|AVX|AVX2]
Thread count: 10 physical cores, 16 logical processors, using up to 16 threads

Non-default parameters:
TimeLimit  600
MIPGap  0.01
Presolve  2

Optimize a model with 3852 rows, 1123 columns and 19430 nonzeros
Model fingerprint: 0x09a0fc0a
Variable types: 158 continuous, 965 integer (935 binary)
Coefficient statistics:
  Matrix range     [1e+00, 5e+02]
  Objective range  [1e-03, 1e+00]
  Bounds range     [1e+00, 3e+01]
  RHS range        [1e+00, 5e+02]
Presolve removed 3659 rows and 1042 columns
Presolve time: 0.01s
Presolved: 193 rows, 81 columns, 888 nonzeros
Variable types: 23 continuous, 58 integer (51 binary)
Root relaxation presolve removed 1 rows and 0 columns
Root relaxation presolved: 192 rows, 81 columns, 881 nonzeros


Root relaxation: objective 8.600000e+01, 35 iterations, 0.00 seconds (0.00 work units)

    Nodes    |    Current Node    |     Objective Bounds      |     Work
 Expl Unexpl |  Obj  Depth IntInf | Incumbent    BestBd   Gap | It/Node Time

     0     0   86.00000    0   14          -   86.00000      -     -    0s
     0     0   86.06900    0   14          -   86.06900      -     -    0s
     0     0   86.30617    0   25          -   86.30617      -     -    0s
H    0     0                     132.0850000  103.97914  21.3%     -    0s
     0     0  104.01004    0   22  132.08500  104.01004  21.3%     -    0s
     0     0  105.40724    0   18  132.08500  105.40724  20.2%     -    0s
H    0     0                     130.0850000  105.40724  19.0%     -    0s
     0     0  107.30275    0   21  130.08500  107.30275  17.5%     -    0s
     0     0  107.57550    0   17  130.08500  107.57550  17.3%     -    0s
     0     0  112.61092    0   13  130.08500  112.61092  13.4%     -    0s
     0     0  113.18542    0   13  130.08500  113.18542  13.0%     -    0s
     0     0  114.07650    0   17  130.08500  114.07650  12.3%     -    0s
     0     0  115.58399    0   17  130.08500  115.58399  11.1%     -    0s
     0     0  115.58399    0   19  130.08500  115.58399  11.1%     -    0s
     0     0  115.58399    0   20  130.08500  115.58399  11.1%     -    0s
     0     0  115.58399    0   18  130.08500  115.58399  11.1%     -    0s
     0     0  115.58399    0   20  130.08500  115.58399  11.1%     -    0s
     0     0  115.58399    0   22  130.08500  115.58399  11.1%     -    0s
     0     0  115.58399    0   22  130.08500  115.58399  11.1%     -    0s
     0     0  115.58399    0   13  130.08500  115.58399  11.1%     -    0s
     0     0  115.58399    0   21  130.08500  115.58399  11.1%     -    0s
     0     0  115.58399    0   18  130.08500  115.58399  11.1%     -    0s
     0     0  115.58399    0   15  130.08500  115.58399  11.1%     -    0s
     0     0  115.58399    0   15  130.08500  115.58399  11.1%     -    0s
     0     0  115.58399    0   15  130.08500  115.58399  11.1%     -    0s
     0     0  115.58399    0   15  130.08500  115.58399  11.1%     -    0s
     0     0  115.69093    0   18  130.08500  115.69093  11.1%     -    0s
     0     0  116.10826    0   17  130.08500  116.10826  10.7%     -    0s
     0     0  116.27842    0   16  130.08500  116.27842  10.6%     -    0s
     0     0  116.27842    0   16  130.08500  116.27842  10.6%     -    0s
     0     0  125.67788    0   16  130.08500  125.67788  3.39%     -    0s

Cutting planes:
  Gomory: 1
  Implied bound: 4
  MIR: 15
  RLT: 3
  Relax-and-lift: 2

Explored 1 nodes (519 simplex iterations) in 0.11 seconds (0.05 work units)
Thread count was 16 (of 16 available processors)

Solution count 2: 130.085 132.085 

Optimal solution found (tolerance 1.00e-02)
Best objective 1.300850000000e+02, best bound 1.300710000000e+02, gap 0.0108%
